(set-logic QF_LIA)
(declare-const tour (Array Int Int))
(declare-const cost Int)

; Basic bounds
(assert (>= (select tour 1) 1))
(assert (<= (select tour 1) 22))
(assert (>= cost 0))

; Triangle inequality pruning - eliminate geometrically impossible tours
; Triangle inequality for cities 19,20,21 (dist: 115)
(assert (<= (+ 51 56) (+ 8 1)))
(assert (<= (+ 51 8) (+ 56 1)))
(assert (<= (+ 56 8) (+ 51 1)))
; Triangle inequality for cities 12,13,14 (dist: 220)
(assert (<= (+ 40 107) (+ 73 1)))
(assert (<= (+ 40 73) (+ 107 1)))
(assert (<= (+ 107 73) (+ 40 1)))
; Triangle inequality for cities 10,20,21 (dist: 273)
(assert (<= (+ 132 133) (+ 8 1)))
(assert (<= (+ 132 8) (+ 133 1)))
(assert (<= (+ 133 8) (+ 132 1)))
; Triangle inequality for cities 10,19,20 (dist: 274)
(assert (<= (+ 92 132) (+ 51 1)))
(assert (<= (+ 92 51) (+ 132 1)))
(assert (<= (+ 132 51) (+ 92 1)))
; Triangle inequality for cities 10,19,21 (dist: 282)
(assert (<= (+ 92 133) (+ 56 1)))
(assert (<= (+ 92 56) (+ 133 1)))
(assert (<= (+ 133 56) (+ 92 1)))
; Triangle inequality for cities 4,18,22 (dist: 345)
(assert (<= (+ 22 154) (+ 169 1)))
(assert (<= (+ 22 169) (+ 154 1)))
(assert (<= (+ 154 169) (+ 22 1)))
; Triangle inequality for cities 7,12,13 (dist: 414)
(assert (<= (+ 176 198) (+ 40 1)))
(assert (<= (+ 176 40) (+ 198 1)))
(assert (<= (+ 198 40) (+ 176 1)))
; Triangle inequality for cities 1,8,16 (dist: 444)
(assert (<= (+ 80 145) (+ 218 1)))
(assert (<= (+ 80 218) (+ 145 1)))
(assert (<= (+ 145 218) (+ 80 1)))
; Triangle inequality for cities 12,20,21 (dist: 456)
(assert (<= (+ 223 225) (+ 8 1)))
(assert (<= (+ 223 8) (+ 225 1)))
(assert (<= (+ 225 8) (+ 223 1)))
; Triangle inequality for cities 1,8,22 (dist: 469)
(assert (<= (+ 80 202) (+ 187 1)))
(assert (<= (+ 80 187) (+ 202 1)))
(assert (<= (+ 202 187) (+ 80 1)))

; MST lower bound pruning
(assert (>= cost 4636))
(assert (< cost 7718))
